T=29;
V=16;
graph=[{2,5,1},{1,3,6,2},{2,4,7,3},{3,8,4},{1,6,9,5},{2,5,7,10,6},{3,6,8,11,7},{4,7,12,8},{5,10,13,9},{6,9,11,14,10},{7,10,12,15,11},{8,11,16,12},{9,14,13},{10,13,15,14},{11,14,16,15},{12,15,16}];
A=15;
start=[7,8,9,6,1,5,14,2,16,10,4,12,15,11,13];
end=[1,2,3,4,5,6,7,8,9,10,11,12,13,14,15];
